(declare-fun var0 () String)
(assert (RegexIn var0 (RegexConcat (RegexPlus (RegexPlus (Str2Reg "y"))) (RegexConcat (RegexPlus (RegexUnion (Str2Reg "ww") (Str2Reg "xxx"))) (RegexConcat (RegexPlus (RegexStar (Str2Reg "vvv"))) (RegexConcat (RegexPlus (RegexUnion (Str2Reg "ttt") (Str2Reg "u"))) (RegexConcat (RegexPlus (RegexPlus (Str2Reg "s"))) (RegexConcat (RegexStar (RegexStar (Str2Reg "rr"))) (RegexConcat (RegexPlus (RegexStar (Str2Reg "q"))) (RegexConcat (RegexStar (RegexStar (Str2Reg "ppp"))) (RegexConcat (RegexPlus (RegexStar (Str2Reg "o"))) (RegexConcat (RegexPlus (RegexUnion (Str2Reg "m") (Str2Reg "n"))) (RegexConcat (RegexStar (RegexStar (Str2Reg "lll"))) (RegexConcat (RegexStar (RegexStar (Str2Reg "kkk"))) (RegexConcat (RegexStar (RegexPlus (Str2Reg "j"))) (RegexConcat (RegexPlus (RegexUnion (Str2Reg "hh") (Str2Reg "ii"))) (RegexConcat (RegexStar (RegexPlus (Str2Reg "g"))) (RegexConcat (RegexStar (RegexPlus (Str2Reg "ff"))) (RegexConcat (RegexStar (RegexStar (Str2Reg "eee"))) (RegexConcat (RegexPlus (RegexPlus (Str2Reg "ddd"))) (RegexConcat (RegexPlus (RegexPlus (Str2Reg "ccc"))) (RegexConcat (RegexPlus (RegexUnion (Str2Reg "aa") (Str2Reg "bb"))) (RegexConcat (RegexStar (RegexPlus (Str2Reg "99"))) (RegexConcat (RegexPlus (RegexUnion (Str2Reg "777") (Str2Reg "88"))) (RegexConcat (RegexStar (RegexPlus (Str2Reg "666"))) (RegexConcat (RegexUnion (RegexUnion (Str2Reg "33") (Str2Reg "44")) (RegexPlus (Str2Reg "555"))) (RegexConcat (RegexStar (RegexStar (Str2Reg "222"))) (RegexConcat (RegexPlus (RegexStar (Str2Reg "11"))) (RegexPlus (RegexStar (Str2Reg "000")))))))))))))))))))))))))))))))
(check-sat)